R201n														
															
CUSTOMER-EVENT				
CUST NO.	DEMAND		ACTION TIME
				
1		10		114
2		8		79
3		12		482
4		19		47
5		27		17
6		4		5
7		6		83
8		11		335
9		19		267
10		15		51
11		11		77
12		16		169
13		25		370
14		21		14
15		6		125
16		19		87
17		3		316
18		15		52
19		17		151
20		9		107
21		11		6
22		20		389
23		29		7
24		4		206
25		6		74
26		14		506
27		14		82
28		14		19
29		11		167
